experiments/knapsack_bounded/knapsack_bounded_5_10.mps
NAME
ROWS
 N  OBJ
 L  c1
 L  c2
 L  c3
 L  c4
 L  c5
 L  c6
COLUMNS
    MARKER    'MARKER'                 'INTORG'
    x[1]      c1        837
    x[1]      c2        1
    x[1]      OBJ       -744
    x[2]      c1        377
    x[2]      c3        1
    x[2]      OBJ       -344
    x[3]      c1        876
    x[3]      c4        1
    x[3]      OBJ       -92
    x[4]      c1        831
    x[4]      c5        1
    x[4]      OBJ       -731
    x[5]      c1        569
    x[5]      c6        1
    x[5]      OBJ       -124
    MARKER    'MARKER'                 'INTEND'
RHS
    rhs       c1        1745
    rhs       c2        8
    rhs       c3        3
    rhs       c4        7
    rhs       c5        7
    rhs       c6        8
RANGES
BOUNDS
 LO bounds    x[1]      0
 PL bounds    x[1]
 LO bounds    x[2]      0
 PL bounds    x[2]
 LO bounds    x[3]      0
 PL bounds    x[3]
 LO bounds    x[4]      0
 PL bounds    x[4]
 LO bounds    x[5]      0
 PL bounds    x[5]
ENDATA
