experiments/knapsack_bounded/knapsack_bounded_5_10.mps.log
Algorithm statistics:
zero_reductions => 49
max_basis_size => 29
queued_pairs => 0
built_pairs => 112
reduced_pairs => 73
eliminated_by_truncation => 0
removed_by_autoreduction => 0
eliminated_by_gcd => 294
time => 0.005216608
memory => 0.0012195706367492676
4ti2 results
4ti2 time => 0.014745813
